25° run output:
{
    "Function": "euclidB300.tsp",
    "Problem dimension": [
        280,
        181,
        6,
        180,
        245,
        128,
        61,
        160,
        138,
        205,
        80,
        282,
        178,
        88,
        247,
        191,
        161,
        52,
        57,
        273,
        169,
        77,
        119,
        75,
        229,
        16,
        56,
        214,
        95,
        289,
        217,
        32,
        26,
        115,
        225,
        114,
        157,
        74,
        121,
        87,
        125,
        104,
        78,
        291,
        146,
        49,
        296,
        200,
        295,
        96,
        299,
        192,
        175,
        118,
        190,
        144,
        266,
        124,
        143,
        290,
        152,
        239,
        243,
        47,
        21,
        123,
        142,
        164,
        268,
        166,
        265,
        209,
        4,
        237,
        102,
        103,
        25,
        283,
        219,
        269,
        139,
        216,
        111,
        94,
        276,
        182,
        199,
        38,
        99,
        226,
        261,
        68,
        238,
        20,
        131,
        288,
        44,
        69,
        30,
        154,
        218,
        249,
        221,
        48,
        155,
        100,
        165,
        274,
        9,
        267,
        133,
        35,
        22,
        50,
        227,
        250,
        12,
        193,
        272,
        29,
        141,
        159,
        37,
        70,
        85,
        126,
        298,
        242,
        147,
        167,
        232,
        18,
        201,
        150,
        248,
        91,
        28,
        54,
        81,
        64,
        11,
        0,
        58,
        208,
        63,
        270,
        3,
        275,
        188,
        173,
        170,
        231,
        260,
        277,
        97,
        42,
        67,
        233,
        215,
        206,
        234,
        194,
        145,
        79,
        148,
        2,
        244,
        72,
        34,
        117,
        251,
        89,
        172,
        10,
        66,
        210,
        222,
        230,
        27,
        151,
        76,
        33,
        183,
        240,
        90,
        93,
        252,
        130,
        262,
        120,
        41,
        171,
        211,
        258,
        263,
        284,
        163,
        156,
        279,
        109,
        40,
        286,
        195,
        17,
        179,
        137,
        174,
        53,
        116,
        132,
        212,
        39,
        19,
        255,
        45,
        153,
        106,
        129,
        36,
        86,
        60,
        196,
        203,
        271,
        71,
        168,
        1,
        105,
        101,
        51,
        187,
        294,
        136,
        246,
        293,
        55,
        220,
        62,
        65,
        24,
        285,
        92,
        127,
        204,
        189,
        185,
        5,
        259,
        253,
        149,
        158,
        46,
        198,
        254,
        98,
        140,
        213,
        235,
        31,
        224,
        297,
        287,
        186,
        202,
        83,
        292,
        177,
        162,
        281,
        15,
        122,
        82,
        59,
        207,
        7,
        223,
        43,
        278,
        110,
        264,
        257,
        23,
        14,
        8,
        197,
        112,
        241,
        236,
        84,
        184,
        108,
        135,
        73,
        134,
        113,
        176,
        107,
        256,
        228,
        13
    ],
    "Global Optimum": 0,
    "Algorithm": "Genetic algorithm",
    "Parameters": {
        "population": 30,
        "offspring": 30,
        "mutation probability": 0.0033333333333333335,
        "crossover probability": 0.9
    },
    "Fitness": 267715,
    "Solution": [
        280,
        181,
        6,
        180,
        245,
        128,
        61,
        160,
        138,
        205,
        80,
        282,
        178,
        88,
        247,
        191,
        161,
        52,
        57,
        273,
        169,
        77,
        119,
        75,
        229,
        16,
        56,
        214,
        95,
        289,
        217,
        32,
        26,
        115,
        225,
        114,
        157,
        74,
        121,
        87,
        125,
        104,
        78,
        291,
        146,
        49,
        296,
        200,
        295,
        96,
        299,
        192,
        175,
        118,
        190,
        144,
        266,
        124,
        143,
        290,
        152,
        239,
        243,
        47,
        21,
        123,
        142,
        164,
        268,
        166,
        265,
        209,
        4,
        237,
        102,
        103,
        25,
        283,
        219,
        269,
        139,
        216,
        111,
        94,
        276,
        182,
        199,
        38,
        99,
        226,
        261,
        68,
        238,
        20,
        131,
        288,
        44,
        69,
        30,
        154,
        218,
        249,
        221,
        48,
        155,
        100,
        165,
        274,
        9,
        267,
        133,
        35,
        22,
        50,
        227,
        250,
        12,
        193,
        272,
        29,
        141,
        159,
        37,
        70,
        85,
        126,
        298,
        242,
        147,
        167,
        232,
        18,
        201,
        150,
        248,
        91,
        28,
        54,
        81,
        64,
        11,
        0,
        58,
        208,
        63,
        270,
        3,
        275,
        188,
        173,
        170,
        231,
        260,
        277,
        97,
        42,
        67,
        233,
        215,
        206,
        234,
        194,
        145,
        79,
        148,
        2,
        244,
        72,
        34,
        117,
        251,
        89,
        172,
        10,
        66,
        210,
        222,
        230,
        27,
        151,
        76,
        33,
        183,
        240,
        90,
        93,
        252,
        130,
        262,
        120,
        41,
        171,
        211,
        258,
        263,
        284,
        163,
        156,
        279,
        109,
        40,
        286,
        195,
        17,
        179,
        137,
        174,
        53,
        116,
        132,
        212,
        39,
        19,
        255,
        45,
        153,
        106,
        129,
        36,
        86,
        60,
        196,
        203,
        271,
        71,
        168,
        1,
        105,
        101,
        51,
        187,
        294,
        136,
        246,
        293,
        55,
        220,
        62,
        65,
        24,
        285,
        92,
        127,
        204,
        189,
        185,
        5,
        259,
        253,
        149,
        158,
        46,
        198,
        254,
        98,
        140,
        213,
        235,
        31,
        224,
        297,
        287,
        186,
        202,
        83,
        292,
        177,
        162,
        281,
        15,
        122,
        82,
        59,
        207,
        7,
        223,
        43,
        278,
        110,
        264,
        257,
        23,
        14,
        8,
        197,
        112,
        241,
        236,
        84,
        184,
        108,
        135,
        73,
        134,
        113,
        176,
        107,
        256,
        228,
        13
    ],
    "Nb of functions evaluations": 400020,
    "Computational time in seconds": 694.9322884082794,
    "Stopping criterion in evaluations": 400000
}